% File represents an instance of a Composite Structure problem to be solved by a CP framework
% Created on 2025-03-26 10:41:34.465
T = 56;
n = 25;
m = 40;
edges = [(2, 1),
(7, 6),
(12, 11),
(17, 16),
(22, 21),
(2, 3),
(8, 7),
(13, 12),
(18, 17),
(23, 22),
(4, 3),
(8, 9),
(14, 13),
(19, 18),
(24, 23),
(4, 5),
(9, 10),
(14, 15),
(19, 20),
(24, 25),
(6, 1),
(6, 11),
(11, 16),
(16, 21),
(7, 2),
(7, 12),
(12, 17),
(17, 22),
(8, 3),
(8, 13),
(13, 18),
(18, 23),
(4, 9),
(14, 9),
(14, 19),
(19, 24),
(10, 5),
(15, 10),
(15, 20),
(20, 25)];
counts = [|14, 4, 14, 12,
|14, 4, 14, 18,
|14, 2, 14, 18,
|14, 8, 14, 18,
|14, 2, 14, 18,
|14, 6, 14, 12,
|14, 6, 14, 18,
|14, 8, 14, 18,
|14, 6, 14, 18,
|14, 4, 14, 18,
|14, 6, 14, 10,
|14, 6, 14, 12,
|14, 6, 14, 18,
|16, 6, 16, 18,
|16, 4, 16, 18,
|14, 6, 14, 6,
|14, 6, 14, 10,
|14, 6, 14, 16,
|16, 6, 16, 16,
|16, 4, 16, 14,
|14, 4, 14, 6,
|14, 6, 14, 6,
|14, 6, 14, 12,
|16, 6, 16, 14,
|14, 4, 14, 14|];
